db/data/178422551131690932021316701113027531.z3.out
-------------------
2500.121894104
